
  12    4
  10   10   10   10

   0   0   0   0   0   7 2 3 4 7 8 9 11 
   7  10  10  10  10   2 6 5 
   4  10  10  10  10   2 6 5 
   5  10  10  10  10   1 5 
   9  10  10  10  10   1 10 
   1  10  10  10  10   1 10 
   2  10  10  10  10   1 10 
   8  10  10  10  10   1 10 
   1  10  10  10  10   1 10 
   6  10  10  10  10   1 12
  10  10  10  10  10   1 12
   0   0   0   0   0   0 
